p tw 24 146
0 1
0 2
0 12
0 15
0 7
0 11
0 21
0 5
0 17
0 16
0 20
1 2
1 4
1 5
1 9
1 19
1 12
1 18
1 15
1 17
2 10
2 18
2 14
2 15
2 6
2 16
2 11
2 22
2 9
2 20
2 7
2 17
2 8
2 21
3 4
3 5
3 8
3 16
3 13
3 17
3 11
3 12
3 6
3 9
3 15
3 21
3 14
3 22
4 5
4 16
4 12
4 20
4 21
4 6
4 7
5 8
5 12
5 17
5 14
5 9
5 6
5 21
5 23
5 15
5 19
5 11
6 7
6 8
6 11
6 12
6 13
6 19
6 10
6 15
6 21
6 14
6 17
6 22
7 8
7 12
7 16
7 17
7 11
8 11
8 14
8 18
8 12
8 16
8 17
8 15
8 21
9 10
9 11
9 13
9 18
9 20
9 19
9 17
10 11
10 18
10 20
10 14
10 19
10 16
10 22
10 17
11 12
11 13
11 14
11 21
11 15
11 22
11 17
11 20
11 18
12 15
12 17
12 20
12 13
12 18
12 16
12 21
13 19
13 17
13 15
14 15
14 17
14 19
14 16
15 16
15 21
15 18
15 19
15 17
15 20
16 17
16 20
16 21
16 23
17 23
17 19
17 21
17 22
18 20
19 21
21 23
